c Tree-structured CNF
c Generated CNF instance
p cnf 255 758
-1 3 0
1 -3 0
3 4 0
-1 4 0
1 -4 0
4 5 0
-2 5 0
2 -5 0
5 6 0
-2 6 0
2 -6 0
6 7 0
-3 7 0
3 -7 0
7 8 0
-3 8 0
3 -8 0
8 9 0
-4 9 0
4 -9 0
9 10 0
-4 10 0
4 -10 0
10 11 0
-5 11 0
5 -11 0
11 12 0
-5 12 0
5 -12 0
12 13 0
-6 13 0
6 -13 0
13 14 0
-6 14 0
6 -14 0
14 15 0
-7 15 0
7 -15 0
15 16 0
-7 16 0
7 -16 0
16 17 0
-8 17 0
8 -17 0
17 18 0
-8 18 0
8 -18 0
18 19 0
-9 19 0
9 -19 0
19 20 0
-9 20 0
9 -20 0
20 21 0
-10 21 0
10 -21 0
21 22 0
-10 22 0
10 -22 0
22 23 0
-11 23 0
11 -23 0
23 24 0
-11 24 0
11 -24 0
24 25 0
-12 25 0
12 -25 0
25 26 0
-12 26 0
12 -26 0
26 27 0
-13 27 0
13 -27 0
27 28 0
-13 28 0
13 -28 0
28 29 0
-14 29 0
14 -29 0
29 30 0
-14 30 0
14 -30 0
30 31 0
-15 31 0
15 -31 0
31 32 0
-15 32 0
15 -32 0
32 33 0
-16 33 0
16 -33 0
33 34 0
-16 34 0
16 -34 0
34 35 0
-17 35 0
17 -35 0
35 36 0
-17 36 0
17 -36 0
36 37 0
-18 37 0
18 -37 0
37 38 0
-18 38 0
18 -38 0
38 39 0
-19 39 0
19 -39 0
39 40 0
-19 40 0
19 -40 0
40 41 0
-20 41 0
20 -41 0
41 42 0
-20 42 0
20 -42 0
42 43 0
-21 43 0
21 -43 0
43 44 0
-21 44 0
21 -44 0
44 45 0
-22 45 0
22 -45 0
45 46 0
-22 46 0
22 -46 0
46 47 0
-23 47 0
23 -47 0
47 48 0
-23 48 0
23 -48 0
48 49 0
-24 49 0
24 -49 0
49 50 0
-24 50 0
24 -50 0
50 51 0
-25 51 0
25 -51 0
51 52 0
-25 52 0
25 -52 0
52 53 0
-26 53 0
26 -53 0
53 54 0
-26 54 0
26 -54 0
54 55 0
-27 55 0
27 -55 0
55 56 0
-27 56 0
27 -56 0
56 57 0
-28 57 0
28 -57 0
57 58 0
-28 58 0
28 -58 0
58 59 0
-29 59 0
29 -59 0
59 60 0
-29 60 0
29 -60 0
60 61 0
-30 61 0
30 -61 0
61 62 0
-30 62 0
30 -62 0
62 63 0
-31 63 0
31 -63 0
63 64 0
-31 64 0
31 -64 0
64 65 0
-32 65 0
32 -65 0
65 66 0
-32 66 0
32 -66 0
66 67 0
-33 67 0
33 -67 0
67 68 0
-33 68 0
33 -68 0
68 69 0
-34 69 0
34 -69 0
69 70 0
-34 70 0
34 -70 0
70 71 0
-35 71 0
35 -71 0
71 72 0
-35 72 0
35 -72 0
72 73 0
-36 73 0
36 -73 0
73 74 0
-36 74 0
36 -74 0
74 75 0
-37 75 0
37 -75 0
75 76 0
-37 76 0
37 -76 0
76 77 0
-38 77 0
38 -77 0
77 78 0
-38 78 0
38 -78 0
78 79 0
-39 79 0
39 -79 0
79 80 0
-39 80 0
39 -80 0
80 81 0
-40 81 0
40 -81 0
81 82 0
-40 82 0
40 -82 0
82 83 0
-41 83 0
41 -83 0
83 84 0
-41 84 0
41 -84 0
84 85 0
-42 85 0
42 -85 0
85 86 0
-42 86 0
42 -86 0
86 87 0
-43 87 0
43 -87 0
87 88 0
-43 88 0
43 -88 0
88 89 0
-44 89 0
44 -89 0
89 90 0
-44 90 0
44 -90 0
90 91 0
-45 91 0
45 -91 0
91 92 0
-45 92 0
45 -92 0
92 93 0
-46 93 0
46 -93 0
93 94 0
-46 94 0
46 -94 0
94 95 0
-47 95 0
47 -95 0
95 96 0
-47 96 0
47 -96 0
96 97 0
-48 97 0
48 -97 0
97 98 0
-48 98 0
48 -98 0
98 99 0
-49 99 0
49 -99 0
99 100 0
-49 100 0
49 -100 0
100 101 0
-50 101 0
50 -101 0
101 102 0
-50 102 0
50 -102 0
102 103 0
-51 103 0
51 -103 0
103 104 0
-51 104 0
51 -104 0
104 105 0
-52 105 0
52 -105 0
105 106 0
-52 106 0
52 -106 0
106 107 0
-53 107 0
53 -107 0
107 108 0
-53 108 0
53 -108 0
108 109 0
-54 109 0
54 -109 0
109 110 0
-54 110 0
54 -110 0
110 111 0
-55 111 0
55 -111 0
111 112 0
-55 112 0
55 -112 0
112 113 0
-56 113 0
56 -113 0
113 114 0
-56 114 0
56 -114 0
114 115 0
-57 115 0
57 -115 0
115 116 0
-57 116 0
57 -116 0
116 117 0
-58 117 0
58 -117 0
117 118 0
-58 118 0
58 -118 0
118 119 0
-59 119 0
59 -119 0
119 120 0
-59 120 0
59 -120 0
120 121 0
-60 121 0
60 -121 0
121 122 0
-60 122 0
60 -122 0
122 123 0
-61 123 0
61 -123 0
123 124 0
-61 124 0
61 -124 0
124 125 0
-62 125 0
62 -125 0
125 126 0
-62 126 0
62 -126 0
126 127 0
-63 127 0
63 -127 0
127 128 0
-63 128 0
63 -128 0
128 129 0
-64 129 0
64 -129 0
129 130 0
-64 130 0
64 -130 0
130 131 0
-65 131 0
65 -131 0
131 132 0
-65 132 0
65 -132 0
132 133 0
-66 133 0
66 -133 0
133 134 0
-66 134 0
66 -134 0
134 135 0
-67 135 0
67 -135 0
135 136 0
-67 136 0
67 -136 0
136 137 0
-68 137 0
68 -137 0
137 138 0
-68 138 0
68 -138 0
138 139 0
-69 139 0
69 -139 0
139 140 0
-69 140 0
69 -140 0
140 141 0
-70 141 0
70 -141 0
141 142 0
-70 142 0
70 -142 0
142 143 0
-71 143 0
71 -143 0
143 144 0
-71 144 0
71 -144 0
144 145 0
-72 145 0
72 -145 0
145 146 0
-72 146 0
72 -146 0
146 147 0
-73 147 0
73 -147 0
147 148 0
-73 148 0
73 -148 0
148 149 0
-74 149 0
74 -149 0
149 150 0
-74 150 0
74 -150 0
150 151 0
-75 151 0
75 -151 0
151 152 0
-75 152 0
75 -152 0
152 153 0
-76 153 0
76 -153 0
153 154 0
-76 154 0
76 -154 0
154 155 0
-77 155 0
77 -155 0
155 156 0
-77 156 0
77 -156 0
156 157 0
-78 157 0
78 -157 0
157 158 0
-78 158 0
78 -158 0
158 159 0
-79 159 0
79 -159 0
159 160 0
-79 160 0
79 -160 0
160 161 0
-80 161 0
80 -161 0
161 162 0
-80 162 0
80 -162 0
162 163 0
-81 163 0
81 -163 0
163 164 0
-81 164 0
81 -164 0
164 165 0
-82 165 0
82 -165 0
165 166 0
-82 166 0
82 -166 0
166 167 0
-83 167 0
83 -167 0
167 168 0
-83 168 0
83 -168 0
168 169 0
-84 169 0
84 -169 0
169 170 0
-84 170 0
84 -170 0
170 171 0
-85 171 0
85 -171 0
171 172 0
-85 172 0
85 -172 0
172 173 0
-86 173 0
86 -173 0
173 174 0
-86 174 0
86 -174 0
174 175 0
-87 175 0
87 -175 0
175 176 0
-87 176 0
87 -176 0
176 177 0
-88 177 0
88 -177 0
177 178 0
-88 178 0
88 -178 0
178 179 0
-89 179 0
89 -179 0
179 180 0
-89 180 0
89 -180 0
180 181 0
-90 181 0
90 -181 0
181 182 0
-90 182 0
90 -182 0
182 183 0
-91 183 0
91 -183 0
183 184 0
-91 184 0
91 -184 0
184 185 0
-92 185 0
92 -185 0
185 186 0
-92 186 0
92 -186 0
186 187 0
-93 187 0
93 -187 0
187 188 0
-93 188 0
93 -188 0
188 189 0
-94 189 0
94 -189 0
189 190 0
-94 190 0
94 -190 0
190 191 0
-95 191 0
95 -191 0
191 192 0
-95 192 0
95 -192 0
192 193 0
-96 193 0
96 -193 0
193 194 0
-96 194 0
96 -194 0
194 195 0
-97 195 0
97 -195 0
195 196 0
-97 196 0
97 -196 0
196 197 0
-98 197 0
98 -197 0
197 198 0
-98 198 0
98 -198 0
198 199 0
-99 199 0
99 -199 0
199 200 0
-99 200 0
99 -200 0
200 201 0
-100 201 0
100 -201 0
201 202 0
-100 202 0
100 -202 0
202 203 0
-101 203 0
101 -203 0
203 204 0
-101 204 0
101 -204 0
204 205 0
-102 205 0
102 -205 0
205 206 0
-102 206 0
102 -206 0
206 207 0
-103 207 0
103 -207 0
207 208 0
-103 208 0
103 -208 0
208 209 0
-104 209 0
104 -209 0
209 210 0
-104 210 0
104 -210 0
210 211 0
-105 211 0
105 -211 0
211 212 0
-105 212 0
105 -212 0
212 213 0
-106 213 0
106 -213 0
213 214 0
-106 214 0
106 -214 0
214 215 0
-107 215 0
107 -215 0
215 216 0
-107 216 0
107 -216 0
216 217 0
-108 217 0
108 -217 0
217 218 0
-108 218 0
108 -218 0
218 219 0
-109 219 0
109 -219 0
219 220 0
-109 220 0
109 -220 0
220 221 0
-110 221 0
110 -221 0
221 222 0
-110 222 0
110 -222 0
222 223 0
-111 223 0
111 -223 0
223 224 0
-111 224 0
111 -224 0
224 225 0
-112 225 0
112 -225 0
225 226 0
-112 226 0
112 -226 0
226 227 0
-113 227 0
113 -227 0
227 228 0
-113 228 0
113 -228 0
228 229 0
-114 229 0
114 -229 0
229 230 0
-114 230 0
114 -230 0
230 231 0
-115 231 0
115 -231 0
231 232 0
-115 232 0
115 -232 0
232 233 0
-116 233 0
116 -233 0
233 234 0
-116 234 0
116 -234 0
234 235 0
-117 235 0
117 -235 0
235 236 0
-117 236 0
117 -236 0
236 237 0
-118 237 0
118 -237 0
237 238 0
-118 238 0
118 -238 0
238 239 0
-119 239 0
119 -239 0
239 240 0
-119 240 0
119 -240 0
240 241 0
-120 241 0
120 -241 0
241 242 0
-120 242 0
120 -242 0
242 243 0
-121 243 0
121 -243 0
243 244 0
-121 244 0
121 -244 0
244 245 0
-122 245 0
122 -245 0
245 246 0
-122 246 0
122 -246 0
246 247 0
-123 247 0
123 -247 0
247 248 0
-123 248 0
123 -248 0
248 249 0
-124 249 0
124 -249 0
249 250 0
-124 250 0
124 -250 0
250 251 0
-125 251 0
125 -251 0
251 252 0
-125 252 0
125 -252 0
252 253 0
-126 253 0
126 -253 0
253 254 0
-126 254 0
126 -254 0
254 255 0
-127 255 0
127 -255 0
